c "954698.clq"
p edge 205 3024
e 1 17
e 1 18
e 1 20
e 1 22
e 1 23
e 1 24
e 1 26
e 1 27
e 1 29
e 1 30
e 1 35
e 1 36
e 1 37
e 1 38
e 1 41
e 1 44
e 1 45
e 1 50
e 1 52
e 1 55
e 1 59
e 1 61
e 1 68
e 1 80
e 1 83
e 1 97
e 1 108
e 1 109
e 1 111
e 1 124
e 1 140
e 1 143
e 1 156
e 1 161
e 1 164
e 1 178
e 1 179
e 1 185
e 1 198
e 2 17
e 2 18
e 2 19
e 2 20
e 2 22
e 2 24
e 2 26
e 2 29
e 2 30
e 2 31
e 2 33
e 2 36
e 2 42
e 2 47
e 2 49
e 2 51
e 2 56
e 2 60
e 2 61
e 2 71
e 2 78
e 2 79
e 2 83
e 2 93
e 2 99
e 2 111
e 2 129
e 2 133
e 2 138
e 2 140
e 2 154
e 2 168
e 2 173
e 2 184
e 2 194
e 2 197
e 3 17
e 3 19
e 3 20
e 3 21
e 3 22
e 3 23
e 3 24
e 3 28
e 3 29
e 3 33
e 3 34
e 3 35
e 3 37
e 3 38
e 3 41
e 3 43
e 3 44
e 3 61
e 3 62
e 3 66
e 3 69
e 3 70
e 3 71
e 3 74
e 3 77
e 3 78
e 3 80
e 3 82
e 3 83
e 3 87
e 3 103
e 3 122
e 3 125
e 3 130
e 3 135
e 3 138
e 3 147
e 3 151
e 3 152
e 3 153
e 3 156
e 3 170
e 3 172
e 3 177
e 3 179
e 3 185
e 3 189
e 3 197
e 3 199
e 3 202
e 4 17
e 4 18
e 4 19
e 4 20
e 4 21
e 4 32
e 4 34
e 4 35
e 4 41
e 4 54
e 4 78
e 4 93
e 4 94
e 4 98
e 4 104
e 4 119
e 4 126
e 4 140
e 4 146
e 4 172
e 4 174
e 4 191
e 5 17
e 5 18
e 5 20
e 5 21
e 5 22
e 5 25
e 5 26
e 5 27
e 5 30
e 5 33
e 5 37
e 5 39
e 5 41
e 5 42
e 5 43
e 5 44
e 5 46
e 5 54
e 5 57
e 5 70
e 5 71
e 5 83
e 5 92
e 5 109
e 5 156
e 5 167
e 5 186
e 5 187
e 5 194
e 6 17
e 6 18
e 6 19
e 6 20
e 6 21
e 6 22
e 6 25
e 6 26
e 6 28
e 6 31
e 6 34
e 6 38
e 6 40
e 6 46
e 6 48
e 6 50
e 6 53
e 6 54
e 6 60
e 6 75
e 6 100
e 6 104
e 6 137
e 6 138
e 6 173
e 6 175
e 6 177
e 6 191
e 6 192
e 7 17
e 7 18
e 7 19
e 7 20
e 7 21
e 7 22
e 7 23
e 7 24
e 7 28
e 7 29
e 7 30
e 7 31
e 7 33
e 7 34
e 7 41
e 7 42
e 7 46
e 7 47
e 7 52
e 7 67
e 7 70
e 7 73
e 7 82
e 7 83
e 7 84
e 7 88
e 7 89
e 7 91
e 7 95
e 7 96
e 7 98
e 7 100
e 7 105
e 7 108
e 7 134
e 7 153
e 7 155
e 7 165
e 7 169
e 7 182
e 7 191
e 7 195
e 7 199
e 7 203
e 8 17
e 8 18
e 8 19
e 8 20
e 8 21
e 8 23
e 8 25
e 8 26
e 8 31
e 8 34
e 8 35
e 8 41
e 8 45
e 8 56
e 8 57
e 8 59
e 8 60
e 8 62
e 8 74
e 8 78
e 8 80
e 8 81
e 8 94
e 8 99
e 8 113
e 8 116
e 8 120
e 8 139
e 8 141
e 8 156
e 8 174
e 8 178
e 8 191
e 9 17
e 9 18
e 9 19
e 9 20
e 9 21
e 9 22
e 9 23
e 9 24
e 9 25
e 9 26
e 9 28
e 9 30
e 9 32
e 9 38
e 9 39
e 9 40
e 9 45
e 9 46
e 9 49
e 9 51
e 9 52
e 9 55
e 9 56
e 9 58
e 9 59
e 9 63
e 9 68
e 9 69
e 9 71
e 9 73
e 9 76
e 9 77
e 9 81
e 9 83
e 9 84
e 9 94
e 9 97
e 9 99
e 9 104
e 9 105
e 9 110
e 9 112
e 9 114
e 9 115
e 9 119
e 9 124
e 9 129
e 9 130
e 9 132
e 9 146
e 9 149
e 9 158
e 9 164
e 9 165
e 9 166
e 9 172
e 9 173
e 9 179
e 9 181
e 9 190
e 9 200
e 10 17
e 10 18
e 10 19
e 10 20
e 10 21
e 10 23
e 10 24
e 10 25
e 10 26
e 10 27
e 10 29
e 10 36
e 10 44
e 10 46
e 10 48
e 10 62
e 10 83
e 10 85
e 10 88
e 10 89
e 10 96
e 10 103
e 10 104
e 10 182
e 10 188
e 10 196
e 10 204
e 11 17
e 11 18
e 11 19
e 11 20
e 11 30
e 11 32
e 11 36
e 11 37
e 11 40
e 11 43
e 11 50
e 11 51
e 11 60
e 11 63
e 11 69
e 11 70
e 11 90
e 11 92
e 11 94
e 11 105
e 11 108
e 11 110
e 11 128
e 11 136
e 11 140
e 11 145
e 11 156
e 11 163
e 11 183
e 11 184
e 11 190
e 12 17
e 12 18
e 12 19
e 12 21
e 12 22
e 12 23
e 12 24
e 12 25
e 12 27
e 12 28
e 12 29
e 12 32
e 12 36
e 12 40
e 12 41
e 12 65
e 12 89
e 12 90
e 12 95
e 12 107
e 12 133
e 12 155
e 12 168
e 12 174
e 12 189
e 12 197
e 13 17
e 13 18
e 13 19
e 13 21
e 13 22
e 13 23
e 13 24
e 13 27
e 13 31
e 13 33
e 13 35
e 13 36
e 13 41
e 13 45
e 13 46
e 13 57
e 13 58
e 13 67
e 13 69
e 13 70
e 13 74
e 13 76
e 13 82
e 13 86
e 13 91
e 13 101
e 13 113
e 13 118
e 13 125
e 13 128
e 13 130
e 13 132
e 13 151
e 13 166
e 13 174
e 13 180
e 13 181
e 13 194
e 13 196
e 13 198
e 14 17
e 14 18
e 14 19
e 14 24
e 14 25
e 14 27
e 14 28
e 14 34
e 14 36
e 14 38
e 14 41
e 14 46
e 14 61
e 14 63
e 14 65
e 14 66
e 14 87
e 14 96
e 14 107
e 14 109
e 14 138
e 14 157
e 14 194
e 14 204
e 15 17
e 15 18
e 15 19
e 15 20
e 15 21
e 15 22
e 15 23
e 15 26
e 15 27
e 15 41
e 15 50
e 15 55
e 15 58
e 15 65
e 15 79
e 15 84
e 15 85
e 15 86
e 15 101
e 15 104
e 15 108
e 15 113
e 15 118
e 15 129
e 15 130
e 15 136
e 15 142
e 15 144
e 15 146
e 15 148
e 15 163
e 15 173
e 15 177
e 15 198
e 16 17
e 16 18
e 16 19
e 16 20
e 16 21
e 16 22
e 16 23
e 16 25
e 16 26
e 16 33
e 16 35
e 16 37
e 16 38
e 16 39
e 16 43
e 16 54
e 16 56
e 16 64
e 16 65
e 16 80
e 16 86
e 16 107
e 16 119
e 16 123
e 16 128
e 16 130
e 16 134
e 16 149
e 16 157
e 16 163
e 16 174
e 16 181
e 17 18
e 17 19
e 17 20
e 17 21
e 17 22
e 17 23
e 17 24
e 17 25
e 17 26
e 17 27
e 17 28
e 17 29
e 17 30
e 17 33
e 17 34
e 17 35
e 17 36
e 17 37
e 17 38
e 17 39
e 17 40
e 17 41
e 17 42
e 17 43
e 17 45
e 17 46
e 17 47
e 17 48
e 17 50
e 17 52
e 17 53
e 17 55
e 17 57
e 17 58
e 17 61
e 17 63
e 17 64
e 17 65
e 17 68
e 17 69
e 17 71
e 17 76
e 17 79
e 17 81
e 17 82
e 17 87
e 17 89
e 17 90
e 17 92
e 17 93
e 17 104
e 17 105
e 17 109
e 17 111
e 17 112
e 17 115
e 17 117
e 17 119
e 17 121
e 17 124
e 17 135
e 17 139
e 17 143
e 17 144
e 17 145
e 17 147
e 17 149
e 17 152
e 17 154
e 17 156
e 17 158
e 17 162
e 17 168
e 17 180
e 17 182
e 17 183
e 17 184
e 17 187
e 17 192
e 17 197
e 17 200
e 17 203
e 17 204
e 18 19
e 18 20
e 18 21
e 18 22
e 18 23
e 18 24
e 18 25
e 18 26
e 18 27
e 18 28
e 18 29
e 18 31
e 18 32
e 18 33
e 18 35
e 18 36
e 18 37
e 18 38
e 18 39
e 18 40
e 18 41
e 18 42
e 18 43
e 18 45
e 18 47
e 18 48
e 18 50
e 18 51
e 18 52
e 18 53
e 18 55
e 18 56
e 18 57
e 18 59
e 18 60
e 18 64
e 18 65
e 18 66
e 18 70
e 18 72
e 18 73
e 18 74
e 18 81
e 18 84
e 18 87
e 18 90
e 18 108
e 18 109
e 18 112
e 18 114
e 18 116
e 18 117
e 18 120
e 18 122
e 18 124
e 18 131
e 18 132
e 18 133
e 18 134
e 18 138
e 18 139
e 18 143
e 18 144
e 18 145
e 18 150
e 18 151
e 18 153
e 18 167
e 18 170
e 18 185
e 18 192
e 18 194
e 18 203
e 18 205
e 19 20
e 19 21
e 19 22
e 19 23
e 19 24
e 19 25
e 19 26
e 19 27
e 19 28
e 19 29
e 19 31
e 19 32
e 19 33
e 19 34
e 19 35
e 19 37
e 19 39
e 19 40
e 19 42
e 19 45
e 19 46
e 19 47
e 19 48
e 19 49
e 19 50
e 19 51
e 19 52
e 19 53
e 19 54
e 19 58
e 19 62
e 19 64
e 19 65
e 19 67
e 19 68
e 19 73
e 19 74
e 19 75
e 19 77
e 19 79
e 19 80
e 19 88
e 19 89
e 19 93
e 19 96
e 19 98
e 19 99
e 19 103
e 19 109
e 19 110
e 19 112
e 19 113
e 19 115
e 19 117
e 19 118
e 19 119
e 19 120
e 19 123
e 19 125
e 19 128
e 19 129
e 19 135
e 19 138
e 19 142
e 19 143
e 19 144
e 19 145
e 19 168
e 19 180
e 19 181
e 19 188
e 19 193
e 19 196
e 19 202
e 19 203
e 19 204
e 19 205
e 20 21
e 20 22
e 20 23
e 20 24
e 20 25
e 20 26
e 20 27
e 20 28
e 20 29
e 20 30
e 20 31
e 20 32
e 20 34
e 20 35
e 20 36
e 20 37
e 20 38
e 20 39
e 20 40
e 20 44
e 20 45
e 20 46
e 20 49
e 20 50
e 20 53
e 20 54
e 20 56
e 20 57
e 20 58
e 20 60
e 20 61
e 20 66
e 20 67
e 20 71
e 20 75
e 20 78
e 20 80
e 20 81
e 20 84
e 20 85
e 20 86
e 20 87
e 20 92
e 20 94
e 20 95
e 20 96
e 20 98
e 20 102
e 20 103
e 20 104
e 20 106
e 20 111
e 20 116
e 20 117
e 20 118
e 20 120
e 20 121
e 20 123
e 20 126
e 20 128
e 20 130
e 20 132
e 20 133
e 20 134
e 20 144
e 20 146
e 20 148
e 20 149
e 20 152
e 20 153
e 20 154
e 20 157
e 20 161
e 20 167
e 20 176
e 20 186
e 20 187
e 20 189
e 20 190
e 20 195
e 20 201
e 21 22
e 21 23
e 21 24
e 21 25
e 21 26
e 21 27
e 21 28
e 21 29
e 21 31
e 21 32
e 21 34
e 21 35
e 21 37
e 21 39
e 21 40
e 21 41
e 21 42
e 21 43
e 21 45
e 21 48
e 21 51
e 21 52
e 21 53
e 21 60
e 21 61
e 21 63
e 21 66
e 21 67
e 21 68
e 21 69
e 21 71
e 21 72
e 21 73
e 21 76
e 21 77
e 21 79
e 21 81
e 21 83
e 21 86
e 21 87
e 21 94
e 21 95
e 21 97
e 21 98
e 21 100
e 21 101
e 21 102
e 21 106
e 21 107
e 21 110
e 21 119
e 21 122
e 21 126
e 21 130
e 21 138
e 21 139
e 21 142
e 21 143
e 21 152
e 21 154
e 21 157
e 21 158
e 21 159
e 21 161
e 21 162
e 21 164
e 21 172
e 21 176
e 21 179
e 21 191
e 21 193
e 21 198
e 21 200
e 21 201
e 22 23
e 22 24
e 22 25
e 22 26
e 22 27
e 22 28
e 22 29
e 22 30
e 22 31
e 22 32
e 22 33
e 22 34
e 22 35
e 22 36
e 22 39
e 22 40
e 22 43
e 22 44
e 22 46
e 22 49
e 22 50
e 22 51
e 22 57
e 22 63
e 22 64
e 22 66
e 22 67
e 22 73
e 22 76
e 22 77
e 22 78
e 22 81
e 22 86
e 22 89
e 22 91
e 22 94
e 22 95
e 22 96
e 22 97
e 22 103
e 22 104
e 22 105
e 22 110
e 22 111
e 22 121
e 22 124
e 22 126
e 22 129
e 22 132
e 22 141
e 22 145
e 22 151
e 22 158
e 22 163
e 22 164
e 22 166
e 22 173
e 22 177
e 22 180
e 22 181
e 22 182
e 22 193
e 22 203
e 23 24
e 23 25
e 23 27
e 23 28
e 23 29
e 23 30
e 23 32
e 23 33
e 23 34
e 23 41
e 23 42
e 23 43
e 23 44
e 23 50
e 23 52
e 23 54
e 23 55
e 23 57
e 23 62
e 23 63
e 23 65
e 23 66
e 23 68
e 23 69
e 23 73
e 23 74
e 23 75
e 23 79
e 23 80
e 23 82
e 23 85
e 23 88
e 23 89
e 23 90
e 23 93
e 23 101
e 23 102
e 23 106
e 23 109
e 23 111
e 23 114
e 23 115
e 23 118
e 23 120
e 23 121
e 23 123
e 23 128
e 23 134
e 23 142
e 23 146
e 23 151
e 23 159
e 23 167
e 23 169
e 23 175
e 23 182
e 23 183
e 23 184
e 23 188
e 24 25
e 24 26
e 24 28
e 24 30
e 24 31
e 24 33
e 24 35
e 24 39
e 24 42
e 24 43
e 24 47
e 24 51
e 24 53
e 24 62
e 24 65
e 24 66
e 24 68
e 24 74
e 24 77
e 24 81
e 24 82
e 24 84
e 24 85
e 24 89
e 24 91
e 24 95
e 24 97
e 24 98
e 24 99
e 24 100
e 24 107
e 24 112
e 24 113
e 24 121
e 24 123
e 24 129
e 24 132
e 24 134
e 24 137
e 24 139
e 24 141
e 24 142
e 24 146
e 24 153
e 24 154
e 24 160
e 24 161
e 24 166
e 24 170
e 24 178
e 24 186
e 24 188
e 24 197
e 24 201
e 24 202
e 25 27
e 25 28
e 25 30
e 25 32
e 25 34
e 25 37
e 25 43
e 25 47
e 25 48
e 25 49
e 25 50
e 25 53
e 25 61
e 25 64
e 25 67
e 25 71
e 25 82
e 25 83
e 25 87
e 25 104
e 25 109
e 25 110
e 25 116
e 25 117
e 25 118
e 25 119
e 25 123
e 25 137
e 25 140
e 25 142
e 25 148
e 25 149
e 25 150
e 25 155
e 25 158
e 25 161
e 25 162
e 25 163
e 25 164
e 25 169
e 25 171
e 25 183
e 25 185
e 25 189
e 26 27
e 26 28
e 26 29
e 26 30
e 26 31
e 26 32
e 26 33
e 26 34
e 26 35
e 26 36
e 26 37
e 26 38
e 26 39
e 26 40
e 26 44
e 26 45
e 26 47
e 26 49
e 26 53
e 26 54
e 26 55
e 26 56
e 26 59
e 26 61
e 26 64
e 26 67
e 26 72
e 26 75
e 26 76
e 26 77
e 26 78
e 26 79
e 26 82
e 26 91
e 26 100
e 26 107
e 26 108
e 26 111
e 26 113
e 26 115
e 26 117
e 26 131
e 26 137
e 26 147
e 26 152
e 26 153
e 26 156
e 26 157
e 26 158
e 26 167
e 26 172
e 26 175
e 26 180
e 26 193
e 26 204
e 26 205
e 27 29
e 27 30
e 27 31
e 27 32
e 27 36
e 27 37
e 27 38
e 27 39
e 27 40
e 27 41
e 27 44
e 27 45
e 27 47
e 27 48
e 27 49
e 27 50
e 27 55
e 27 56
e 27 57
e 27 60
e 27 63
e 27 67
e 27 68
e 27 70
e 27 75
e 27 80
e 27 84
e 27 86
e 27 87
e 27 88
e 27 92
e 27 93
e 27 94
e 27 99
e 27 101
e 27 109
e 27 110
e 27 115
e 27 119
e 27 125
e 27 130
e 27 153
e 27 157
e 27 159
e 27 168
e 27 170
e 27 171
e 27 182
e 27 198
e 27 202
e 27 205
e 28 29
e 28 30
e 28 31
e 28 33
e 28 34
e 28 36
e 28 37
e 28 38
e 28 46
e 28 51
e 28 53
e 28 54
e 28 58
e 28 63
e 28 66
e 28 67
e 28 68
e 28 69
e 28 72
e 28 76
e 28 79
e 28 88
e 28 90
e 28 95
e 28 97
e 28 100
e 28 101
e 28 105
e 28 116
e 28 119
e 28 120
e 28 125
e 28 128
e 28 130
e 28 141
e 28 147
e 28 166
e 28 168
e 28 183
e 28 184
e 28 189
e 28 196
e 28 202
e 29 30
e 29 31
e 29 32
e 29 33
e 29 35
e 29 39
e 29 40
e 29 42
e 29 43
e 29 45
e 29 49
e 29 52
e 29 53
e 29 55
e 29 56
e 29 58
e 29 60
e 29 64
e 29 66
e 29 68
e 29 75
e 29 77
e 29 80
e 29 81
e 29 84
e 29 86
e 29 88
e 29 91
e 29 92
e 29 95
e 29 100
e 29 108
e 29 112
e 29 122
e 29 127
e 29 144
e 29 164
e 29 168
e 29 170
e 29 183
e 29 185
e 29 188
e 30 31
e 30 32
e 30 33
e 30 35
e 30 38
e 30 39
e 30 40
e 30 41
e 30 42
e 30 44
e 30 46
e 30 47
e 30 48
e 30 49
e 30 52
e 30 55
e 30 56
e 30 57
e 30 62
e 30 65
e 30 66
e 30 72
e 30 80
e 30 93
e 30 94
e 30 95
e 30 96
e 30 99
e 30 100
e 30 101
e 30 113
e 30 114
e 30 118
e 30 121
e 30 124
e 30 125
e 30 127
e 30 128
e 30 139
e 30 141
e 30 142
e 30 144
e 30 153
e 30 154
e 30 155
e 30 160
e 30 163
e 30 164
e 30 165
e 30 176
e 30 177
e 30 180
e 30 186
e 30 198
e 30 201
e 30 205
e 31 32
e 31 34
e 31 36
e 31 37
e 31 40
e 31 42
e 31 48
e 31 51
e 31 52
e 31 53
e 31 55
e 31 56
e 31 58
e 31 59
e 31 66
e 31 67
e 31 69
e 31 79
e 31 83
e 31 85
e 31 90
e 31 93
e 31 95
e 31 97
e 31 106
e 31 116
e 31 117
e 31 118
e 31 122
e 31 123
e 31 131
e 31 132
e 31 133
e 31 136
e 31 137
e 31 144
e 31 157
e 31 160
e 31 162
e 31 169
e 31 171
e 31 174
e 31 176
e 31 178
e 31 180
e 31 182
e 32 43
e 32 47
e 32 49
e 32 51
e 32 66
e 32 68
e 32 86
e 32 90
e 32 92
e 32 108
e 32 112
e 32 115
e 32 122
e 32 126
e 32 152
e 32 159
e 32 160
e 32 172
e 32 173
e 32 189
e 32 201
e 33 38
e 33 39
e 33 42
e 33 46
e 33 49
e 33 51
e 33 52
e 33 57
e 33 59
e 33 60
e 33 69
e 33 71
e 33 77
e 33 79
e 33 89
e 33 99
e 33 102
e 33 107
e 33 114
e 33 115
e 33 116
e 33 119
e 33 120
e 33 126
e 33 127
e 33 128
e 33 133
e 33 136
e 33 141
e 33 150
e 33 151
e 33 157
e 33 159
e 33 171
e 33 174
e 33 177
e 33 179
e 33 183
e 33 188
e 33 189
e 33 191
e 33 192
e 33 193
e 33 195
e 33 205
e 34 36
e 34 42
e 34 43
e 34 44
e 34 45
e 34 48
e 34 49
e 34 52
e 34 55
e 34 58
e 34 70
e 34 72
e 34 76
e 34 81
e 34 86
e 34 89
e 34 107
e 34 108
e 34 110
e 34 113
e 34 114
e 34 116
e 34 121
e 34 124
e 34 125
e 34 127
e 34 128
e 34 141
e 34 143
e 34 149
e 34 156
e 34 158
e 34 165
e 34 188
e 34 196
e 34 197
e 34 199
e 34 203
e 35 37
e 35 40
e 35 42
e 35 44
e 35 47
e 35 51
e 35 55
e 35 59
e 35 64
e 35 83
e 35 86
e 35 88
e 35 91
e 35 94
e 35 96
e 35 105
e 35 118
e 35 122
e 35 125
e 35 126
e 35 128
e 35 131
e 35 134
e 35 139
e 35 149
e 35 150
e 35 163
e 35 180
e 35 188
e 35 200
e 36 38
e 36 45
e 36 50
e 36 54
e 36 65
e 36 68
e 36 76
e 36 102
e 36 103
e 36 110
e 36 140
e 36 143
e 36 165
e 36 182
e 36 191
e 36 192
e 36 194
e 37 38
e 37 46
e 37 47
e 37 49
e 37 53
e 37 54
e 37 56
e 37 57
e 37 58
e 37 61
e 37 62
e 37 67
e 37 69
e 37 72
e 37 75
e 37 84
e 37 85
e 37 97
e 37 102
e 37 106
e 37 107
e 37 108
e 37 116
e 37 117
e 37 119
e 37 120
e 37 130
e 37 161
e 37 166
e 37 171
e 37 180
e 37 185
e 37 187
e 37 195
e 37 199
e 38 39
e 38 43
e 38 44
e 38 45
e 38 47
e 38 51
e 38 53
e 38 58
e 38 60
e 38 70
e 38 84
e 38 88
e 38 90
e 38 100
e 38 101
e 38 105
e 38 108
e 38 115
e 38 124
e 38 130
e 38 131
e 38 145
e 38 148
e 38 170
e 38 171
e 38 176
e 38 193
e 38 196
e 38 200
e 39 43
e 39 44
e 39 47
e 39 48
e 39 58
e 39 68
e 39 69
e 39 71
e 39 78
e 39 84
e 39 85
e 39 92
e 39 99
e 39 102
e 39 106
e 39 122
e 39 135
e 39 141
e 39 143
e 39 145
e 39 148
e 39 159
e 39 161
e 39 164
e 39 175
e 39 176
e 39 179
e 39 184
e 39 201
e 39 205
e 40 48
e 40 50
e 40 55
e 40 59
e 40 72
e 40 73
e 40 88
e 40 91
e 40 92
e 40 99
e 40 103
e 40 121
e 40 135
e 40 142
e 40 146
e 40 150
e 40 152
e 40 166
e 40 189
e 41 42
e 41 50
e 41 51
e 41 52
e 41 54
e 41 56
e 41 59
e 41 64
e 41 69
e 41 70
e 41 89
e 41 93
e 41 94
e 41 96
e 41 97
e 41 100
e 41 105
e 41 114
e 41 124
e 41 135
e 41 136
e 41 143
e 41 147
e 41 150
e 41 151
e 41 156
e 41 170
e 41 171
e 41 174
e 41 178
e 41 188
e 41 199
e 41 203
e 42 44
e 42 45
e 42 46
e 42 47
e 42 50
e 42 52
e 42 54
e 42 56
e 42 57
e 42 64
e 42 67
e 42 72
e 42 73
e 42 76
e 42 77
e 42 78
e 42 79
e 42 80
e 42 81
e 42 82
e 42 86
e 42 95
e 42 96
e 42 99
e 42 113
e 42 129
e 42 130
e 42 136
e 42 150
e 42 152
e 42 154
e 42 157
e 42 164
e 42 165
e 42 179
e 42 181
e 43 44
e 43 54
e 43 56
e 43 57
e 43 62
e 43 63
e 43 72
e 43 74
e 43 79
e 43 80
e 43 86
e 43 90
e 43 98
e 43 99
e 43 113
e 43 115
e 43 131
e 43 132
e 43 148
e 43 155
e 43 161
e 43 162
e 43 172
e 43 195
e 43 196
e 44 48
e 44 49
e 44 53
e 44 55
e 44 59
e 44 60
e 44 62
e 44 63
e 44 64
e 44 65
e 44 71
e 44 74
e 44 75
e 44 77
e 44 87
e 44 93
e 44 94
e 44 99
e 44 108
e 44 117
e 44 120
e 44 127
e 44 131
e 44 137
e 44 140
e 44 141
e 44 147
e 44 160
e 44 164
e 44 165
e 44 169
e 44 186
e 44 189
e 44 190
e 44 192
e 44 193
e 44 199
e 45 61
e 45 66
e 45 70
e 45 73
e 45 75
e 45 91
e 45 114
e 45 135
e 45 137
e 45 147
e 45 155
e 45 191
e 45 196
e 45 200
e 46 48
e 46 59
e 46 63
e 46 67
e 46 71
e 46 73
e 46 77
e 46 91
e 46 94
e 46 101
e 46 109
e 46 120
e 46 131
e 46 133
e 46 148
e 46 149
e 46 170
e 46 177
e 46 180
e 46 182
e 46 183
e 46 184
e 46 202
e 47 48
e 47 51
e 47 59
e 47 62
e 47 64
e 47 69
e 47 70
e 47 76
e 47 83
e 47 85
e 47 87
e 47 89
e 47 102
e 47 105
e 47 106
e 47 111
e 47 130
e 47 136
e 47 154
e 47 157
e 47 162
e 47 167
e 47 168
e 47 170
e 47 179
e 47 185
e 47 187
e 47 195
e 47 196
e 47 197
e 47 199
e 48 49
e 48 53
e 48 56
e 48 57
e 48 59
e 48 64
e 48 74
e 48 77
e 48 78
e 48 80
e 48 88
e 48 95
e 48 106
e 48 110
e 48 117
e 48 144
e 48 146
e 48 155
e 48 156
e 48 168
e 48 182
e 48 184
e 48 192
e 49 55
e 49 65
e 49 70
e 49 73
e 49 77
e 49 83
e 49 84
e 49 88
e 49 90
e 49 98
e 49 99
e 49 100
e 49 105
e 49 112
e 49 126
e 49 127
e 49 129
e 49 151
e 49 159
e 49 163
e 49 167
e 49 176
e 49 179
e 49 182
e 49 183
e 49 189
e 50 58
e 50 63
e 50 65
e 50 66
e 50 67
e 50 68
e 50 72
e 50 81
e 50 98
e 50 101
e 50 120
e 50 123
e 50 127
e 50 129
e 50 131
e 50 138
e 50 148
e 50 156
e 50 159
e 50 175
e 50 178
e 50 186
e 50 187
e 51 52
e 51 58
e 51 60
e 51 73
e 51 85
e 51 90
e 51 102
e 51 103
e 51 104
e 51 112
e 51 114
e 51 118
e 51 132
e 51 135
e 51 139
e 51 144
e 51 149
e 51 155
e 51 163
e 51 169
e 51 170
e 51 173
e 51 186
e 51 192
e 51 196
e 51 197
e 52 54
e 52 60
e 52 64
e 52 66
e 52 72
e 52 91
e 52 92
e 52 93
e 52 101
e 52 106
e 52 114
e 52 129
e 52 138
e 52 172
e 52 198
e 52 205
e 53 54
e 53 59
e 53 63
e 53 76
e 53 86
e 53 91
e 53 97
e 53 101
e 53 102
e 53 103
e 53 107
e 53 136
e 53 139
e 53 140
e 53 145
e 53 146
e 53 150
e 53 151
e 53 155
e 53 158
e 53 162
e 53 165
e 53 175
e 53 178
e 53 187
e 53 193
e 53 197
e 54 62
e 54 63
e 54 65
e 54 71
e 54 77
e 54 79
e 54 81
e 54 82
e 54 85
e 54 88
e 54 89
e 54 101
e 54 102
e 54 105
e 54 112
e 54 121
e 54 123
e 54 124
e 54 135
e 54 148
e 54 159
e 54 176
e 55 61
e 55 62
e 55 75
e 55 78
e 55 83
e 55 84
e 55 106
e 55 111
e 55 114
e 55 118
e 55 119
e 55 126
e 55 134
e 55 149
e 55 189
e 55 195
e 56 57
e 56 58
e 56 61
e 56 70
e 56 71
e 56 75
e 56 79
e 56 85
e 56 92
e 56 115
e 56 116
e 56 123
e 56 125
e 56 133
e 56 144
e 56 148
e 56 151
e 56 157
e 56 159
e 56 161
e 56 164
e 56 172
e 56 188
e 57 59
e 57 61
e 57 62
e 57 87
e 57 103
e 57 105
e 57 121
e 57 122
e 57 131
e 57 134
e 57 138
e 57 162
e 57 168
e 57 171
e 57 185
e 57 202
e 57 204
e 58 60
e 58 61
e 58 62
e 58 65
e 58 69
e 58 75
e 58 78
e 58 96
e 58 109
e 58 127
e 58 129
e 58 133
e 58 157
e 58 159
e 58 178
e 58 186
e 58 191
e 59 60
e 59 61
e 59 63
e 59 73
e 59 76
e 59 88
e 59 89
e 59 90
e 59 92
e 59 100
e 59 104
e 59 106
e 59 108
e 59 110
e 59 115
e 59 134
e 59 137
e 59 141
e 59 145
e 59 156
e 59 167
e 59 172
e 59 182
e 59 187
e 59 195
e 59 200
e 59 204
e 59 205
e 60 69
e 60 80
e 60 82
e 60 93
e 60 94
e 60 108
e 60 128
e 60 133
e 60 135
e 60 147
e 60 180
e 60 185
e 60 186
e 60 197
e 61 62
e 61 81
e 61 91
e 61 99
e 61 107
e 61 114
e 61 126
e 61 131
e 61 137
e 61 146
e 61 167
e 61 168
e 61 191
e 62 64
e 62 72
e 62 74
e 62 83
e 62 101
e 62 130
e 62 132
e 62 151
e 62 152
e 62 157
e 62 162
e 62 165
e 62 178
e 62 189
e 62 197
e 62 199
e 63 67
e 63 83
e 63 96
e 63 104
e 63 127
e 63 135
e 63 136
e 63 140
e 63 153
e 63 156
e 63 169
e 63 199
e 63 202
e 64 68
e 64 71
e 64 72
e 64 74
e 64 81
e 64 97
e 64 109
e 64 111
e 64 117
e 64 121
e 64 134
e 64 150
e 64 164
e 64 188
e 64 191
e 64 201
e 64 202
e 65 73
e 65 74
e 65 77
e 65 78
e 65 101
e 65 105
e 65 135
e 65 138
e 65 155
e 65 169
e 65 202
e 66 68
e 66 70
e 66 71
e 66 72
e 66 73
e 66 74
e 66 75
e 66 80
e 66 81
e 66 86
e 66 94
e 66 95
e 66 116
e 66 118
e 66 125
e 66 127
e 66 134
e 66 135
e 66 141
e 66 145
e 66 150
e 66 163
e 66 168
e 66 178
e 66 180
e 66 190
e 66 192
e 67 70
e 67 74
e 67 75
e 67 76
e 67 82
e 67 90
e 67 95
e 67 101
e 67 110
e 67 111
e 67 115
e 67 116
e 67 119
e 67 122
e 67 147
e 67 149
e 67 156
e 67 162
e 67 183
e 67 186
e 68 72
e 68 87
e 68 121
e 68 132
e 68 141
e 68 165
e 69 78
e 69 93
e 69 98
e 69 106
e 69 121
e 69 122
e 69 133
e 69 144
e 69 167
e 69 168
e 69 171
e 69 174
e 69 178
e 69 202
e 70 75
e 70 82
e 70 84
e 70 100
e 70 103
e 70 107
e 70 111
e 70 118
e 70 120
e 70 124
e 70 136
e 70 137
e 70 140
e 70 162
e 70 173
e 70 179
e 70 202
e 70 205
e 71 74
e 71 98
e 71 104
e 71 106
e 71 109
e 71 110
e 71 124
e 71 125
e 71 136
e 71 150
e 71 152
e 71 158
e 71 165
e 71 179
e 71 187
e 72 78
e 72 112
e 72 154
e 72 161
e 72 172
e 72 201
e 72 204
e 73 76
e 73 82
e 73 86
e 73 87
e 73 88
e 73 93
e 73 110
e 73 112
e 73 114
e 73 117
e 73 123
e 73 130
e 73 195
e 74 76
e 74 78
e 74 88
e 74 92
e 74 93
e 74 109
e 74 112
e 74 122
e 74 126
e 74 133
e 74 158
e 74 163
e 74 165
e 74 193
e 75 85
e 75 91
e 75 94
e 75 98
e 75 103
e 75 121
e 75 152
e 75 171
e 75 177
e 75 185
e 75 203
e 76 85
e 76 93
e 76 97
e 76 98
e 76 106
e 76 109
e 76 111
e 76 116
e 76 117
e 76 118
e 76 127
e 76 152
e 76 153
e 76 159
e 76 164
e 76 193
e 76 197
e 76 199
e 77 79
e 77 80
e 77 82
e 77 84
e 77 85
e 77 102
e 77 104
e 77 113
e 77 116
e 77 128
e 77 131
e 77 134
e 77 135
e 77 143
e 77 148
e 77 151
e 77 160
e 77 170
e 77 173
e 77 181
e 77 189
e 78 79
e 78 87
e 78 90
e 78 91
e 78 92
e 78 97
e 78 99
e 78 100
e 78 102
e 78 103
e 78 111
e 78 113
e 78 120
e 78 124
e 78 127
e 78 139
e 78 140
e 78 143
e 78 149
e 78 158
e 78 164
e 78 177
e 78 179
e 78 183
e 78 189
e 78 194
e 78 199
e 79 82
e 79 87
e 79 113
e 79 138
e 79 140
e 79 177
e 80 85
e 80 89
e 80 90
e 80 95
e 80 100
e 80 103
e 80 119
e 80 125
e 80 142
e 80 153
e 80 159
e 80 175
e 80 187
e 80 193
e 80 202
e 81 102
e 81 107
e 81 114
e 81 122
e 81 124
e 81 129
e 81 176
e 81 181
e 81 190
e 81 200
e 82 84
e 82 89
e 82 91
e 82 92
e 82 97
e 82 107
e 82 113
e 82 125
e 82 126
e 82 134
e 82 142
e 82 187
e 82 188
e 82 190
e 82 192
e 83 96
e 83 97
e 83 111
e 83 120
e 83 136
e 83 139
e 83 142
e 83 160
e 83 162
e 83 167
e 83 174
e 83 180
e 83 189
e 83 194
e 84 154
e 84 163
e 85 98
e 85 122
e 85 181
e 85 183
e 85 197
e 85 200
e 85 204
e 86 87
e 86 102
e 86 105
e 86 122
e 86 126
e 86 134
e 86 145
e 86 180
e 86 186
e 87 96
e 87 98
e 87 108
e 87 156
e 87 168
e 87 173
e 87 193
e 87 194
e 88 116
e 88 137
e 88 145
e 88 196
e 88 199
e 88 200
e 89 119
e 89 122
e 89 123
e 89 137
e 89 140
e 89 143
e 89 169
e 89 177
e 89 178
e 89 191
e 89 205
e 90 92
e 90 98
e 90 144
e 90 146
e 90 149
e 90 155
e 90 160
e 90 162
e 90 171
e 91 95
e 91 96
e 91 103
e 91 104
e 91 107
e 91 123
e 91 127
e 91 131
e 91 133
e 91 147
e 91 151
e 91 153
e 91 154
e 91 160
e 91 161
e 91 165
e 91 179
e 91 193
e 91 200
e 91 203
e 91 204
e 92 103
e 92 106
e 92 114
e 92 117
e 92 130
e 92 160
e 92 166
e 92 176
e 92 184
e 92 186
e 93 100
e 93 106
e 93 118
e 93 120
e 93 136
e 93 148
e 93 155
e 93 160
e 93 164
e 93 171
e 93 177
e 93 201
e 94 115
e 94 118
e 94 163
e 94 167
e 94 174
e 94 202
e 95 96
e 95 97
e 95 112
e 95 152
e 95 153
e 95 162
e 95 176
e 95 190
e 95 205
e 96 133
e 96 138
e 96 146
e 96 150
e 96 151
e 96 153
e 96 172
e 96 177
e 96 190
e 97 115
e 97 124
e 97 138
e 97 147
e 97 159
e 97 169
e 97 195
e 98 104
e 98 112
e 98 114
e 98 140
e 98 146
e 98 148
e 98 175
e 98 179
e 98 203
e 98 205
e 99 127
e 99 129
e 99 142
e 99 152
e 99 158
e 99 168
e 99 176
e 100 110
e 100 133
e 100 135
e 100 138
e 100 142
e 100 147
e 100 159
e 100 181
e 100 182
e 101 102
e 101 105
e 101 109
e 101 127
e 101 166
e 101 190
e 101 194
e 101 203
e 102 117
e 102 119
e 102 157
e 102 182
e 102 192
e 102 198
e 103 126
e 103 132
e 103 141
e 103 144
e 103 148
e 103 157
e 103 175
e 103 187
e 104 112
e 104 115
e 104 139
e 104 143
e 104 184
e 105 107
e 105 108
e 105 110
e 105 111
e 105 123
e 105 131
e 105 132
e 105 135
e 105 149
e 105 169
e 105 174
e 105 184
e 105 198
e 106 126
e 106 128
e 106 181
e 107 116
e 107 120
e 107 127
e 107 129
e 107 140
e 107 142
e 107 184
e 107 199
e 108 121
e 108 125
e 108 133
e 108 136
e 108 154
e 108 163
e 108 174
e 109 113
e 109 138
e 109 139
e 109 141
e 109 169
e 109 174
e 109 175
e 109 177
e 110 113
e 110 131
e 110 155
e 110 178
e 111 125
e 111 129
e 111 132
e 111 159
e 111 175
e 111 186
e 111 188
e 111 196
e 111 203
e 112 147
e 112 150
e 112 171
e 112 175
e 112 192
e 112 194
e 113 121
e 113 128
e 113 150
e 113 165
e 113 173
e 113 176
e 113 197
e 114 137
e 114 142
e 114 181
e 114 184
e 114 199
e 115 149
e 115 152
e 115 161
e 115 165
e 115 166
e 115 171
e 116 117
e 116 125
e 116 128
e 116 147
e 116 196
e 116 200
e 116 203
e 116 204
e 117 124
e 117 143
e 117 151
e 117 168
e 117 170
e 117 171
e 118 123
e 118 160
e 118 161
e 118 200
e 118 203
e 119 123
e 119 145
e 119 154
e 119 162
e 119 163
e 119 166
e 119 170
e 119 177
e 120 137
e 120 139
e 120 147
e 120 178
e 120 179
e 120 182
e 120 201
e 121 126
e 121 136
e 121 140
e 121 160
e 121 166
e 121 205
e 122 142
e 122 185
e 122 195
e 123 137
e 123 156
e 123 195
e 124 143
e 124 148
e 124 161
e 124 174
e 124 185
e 124 190
e 125 131
e 125 134
e 125 141
e 125 166
e 125 175
e 125 184
e 125 185
e 125 186
e 125 195
e 126 132
e 126 145
e 126 154
e 126 158
e 126 163
e 126 166
e 126 167
e 126 170
e 126 172
e 126 173
e 126 175
e 126 191
e 127 144
e 127 151
e 127 155
e 127 161
e 127 174
e 127 181
e 128 129
e 128 146
e 128 169
e 129 139
e 129 153
e 130 176
e 130 192
e 131 132
e 131 147
e 131 149
e 131 172
e 131 176
e 131 187
e 131 190
e 131 193
e 131 200
e 132 169
e 132 180
e 132 187
e 132 190
e 132 201
e 133 143
e 133 150
e 133 153
e 133 181
e 133 184
e 134 137
e 134 154
e 134 167
e 134 183
e 134 201
e 134 203
e 135 136
e 135 141
e 135 204
e 136 145
e 136 201
e 137 161
e 138 139
e 138 152
e 138 198
e 139 145
e 139 167
e 139 175
e 139 182
e 139 186
e 140 146
e 140 164
e 140 167
e 140 176
e 140 188
e 140 194
e 140 201
e 141 158
e 141 160
e 141 185
e 142 155
e 142 160
e 142 171
e 142 173
e 142 183
e 143 144
e 143 183
e 143 184
e 143 187
e 143 198
e 145 146
e 145 154
e 145 158
e 146 148
e 146 157
e 147 166
e 147 172
e 147 187
e 147 196
e 148 150
e 148 192
e 149 190
e 149 191
e 149 194
e 149 204
e 150 194
e 150 196
e 150 205
e 151 158
e 151 170
e 152 169
e 152 170
e 152 195
e 152 198
e 153 155
e 153 162
e 153 166
e 153 173
e 153 193
e 153 204
e 154 193
e 155 160
e 156 169
e 156 186
e 156 203
e 158 165
e 158 198
e 159 178
e 159 181
e 159 185
e 160 197
e 161 172
e 161 189
e 161 195
e 161 201
e 167 173
e 168 177
e 168 198
e 169 175
e 169 181
e 169 185
e 169 188
e 169 192
e 169 198
e 170 198
e 171 173
e 171 190
e 172 199
e 173 180
e 173 195
e 173 197
e 173 204
e 174 201
e 175 178
e 176 179
e 176 183
e 178 190
e 179 202
e 182 202
e 183 191
e 185 191
e 185 204
e 186 192
e 186 194
e 186 196
e 186 200
e 187 188
e 192 194
e 192 199
e 192 200
e 194 205
